
Gurobi 12.0.1 (win64, C++) logging started Tue Apr 22 09:15:12 2025

Set parameter Username
Set parameter LicenseID to value 2618661
Academic license - for non-commercial use only - expires 2026-02-05
Set parameter Threads to value 8
Set parameter LazyConstraints to value 1
Set parameter PreCrush to value 1
Set parameter Seed to value 10
Set parameter Cuts to value -1
Set parameter TimeLimit to value 28800
Set parameter NumericFocus to value 0
Set parameter SolutionLimit to value 10000
Gurobi Optimizer version 12.0.1 build v12.0.1rc0 (win64 - Windows Server 2022.0 (20348.2))

CPU model: AMD EPYC 7513 32-Core Processor, instruction set [SSE2|AVX|AVX2]
Thread count: 18 physical cores, 18 logical processors, using up to 8 threads

Non-default parameters:
SolutionLimit  10000
TimeLimit  28800
PreCrush  1
Seed  10
Threads  8
LazyConstraints  1

Optimize a model with 137 rows, 256 columns and 720 nonzeros
Model fingerprint: 0x05567875
Variable types: 0 continuous, 256 integer (256 binary)
Coefficient statistics:
  Matrix range     [1e+00, 1e+00]
  Objective range  [8e+00, 6e+01]
  Bounds range     [1e+00, 1e+00]
  RHS range        [1e+00, 3e+00]

User MIP start produced solution with objective 282.334 (0.02s)
Loaded user MIP start with objective 282.334

Presolve removed 1 rows and 16 columns
Presolve time: 0.00s
Presolved: 136 rows, 240 columns, 675 nonzeros
Variable types: 0 continuous, 240 integer (240 binary)

Root relaxation: objective 2.487960e+02, 55 iterations, 0.00 seconds (0.00 work units)

    Nodes    |    Current Node    |     Objective Bounds      |     Work
 Expl Unexpl |  Obj  Depth IntInf | Incumbent    BestBd   Gap | It/Node Time

     0     0  248.79604    0    -  282.33413  248.79604  11.9%     -    0s
     0     0  250.13267    0   12  282.33413  250.13267  11.4%     -    0s
     0     0  251.73966    0    -  282.33413  251.73966  10.8%     -    0s
     0     0  255.97038    0   34  282.33413  255.97038  9.34%     -    0s
     0     0  256.60521    0    -  282.33413  256.60521  9.11%     -    0s
     0     0  258.46816    0   31  282.33413  258.46816  8.45%     -    0s
     0     0  258.61021    0   24  282.33413  258.61021  8.40%     -    0s
     0     0  264.75097    0    -  282.33413  264.75097  6.23%     -    0s
     0     0  265.75128    0   35  282.33413  265.75128  5.87%     -    0s
     0     0  266.06156    0   40  282.33413  266.06156  5.76%     -    0s
     0     0  269.05020    0   23  282.33413  269.05020  4.71%     -    0s
     0     0  270.59070    0   37  282.33413  270.59070  4.16%     -    0s
     0     0  271.66441    0   46  282.33413  271.66441  3.78%     -    0s
     0     0  271.66575    0   49  282.33413  271.66575  3.78%     -    0s
     0     0  271.66575    0   46  282.33413  271.66575  3.78%     -    0s
     0     2  271.66575    0   43  282.33413  271.66575  3.78%     -    0s
*   63    54               8     279.6017426  272.87117  2.41%  20.4    0s
*   64    54               9     278.9849406  272.87117  2.19%  20.3    0s

Cutting planes:
  Gomory: 10
  GUB cover: 1
  Zero half: 7
  Lazy constraints: 550

Explored 196 nodes (3788 simplex iterations) in 1.27 seconds (0.21 work units)
Thread count was 8 (of 18 available processors)

Solution count 3: 278.985 279.602 282.334 

Optimal solution found (tolerance 1.00e-04)
Best objective 2.789849406064e+02, best bound 2.789849406064e+02, gap 0.0000%

User-callback calls 750, time in user-callback 0.85 sec
### START EXACT APPROACH ###
ProblemVariant: 6
### START PREPROCESSING ###
## Start infeasible path procedure ## 
Deleted arcs: 0
Infeasible tail paths: 0
Infeasible 2-node combinations: 0
Deleted arcs: 0
Infeasible tail paths: 0
Infeasible 2-node combinations: 0
## Start start solution procedure ##
Start solution with 3 Vehicles and total costs 282.334 in 0.0021057 s.
### END PREPROCESSING ###
Route 0 0-6-14-13-4-5-0 : weight util 0.988889 | volume util 0.855733 | 
Route 1 0-7-8-3-2-0 : weight util 0.977778 | volume util 0.472578 | 
Route 2 0-12-15-10-9-11-1-0 : weight util 0.900000 | volume util 0.813378 | 
